DIMACS_lns/graph-1000-872.col
p edge 1000 1847
e 1 662
e 1 926
e 1 97
e 1 952
e 1 76
e 1 416
e 2 219
e 2 780
e 2 259
e 2 799
e 3 192
e 3 297
e 3 246
e 4 388
e 4 809
e 4 334
e 5 499
e 5 999
e 5 859
e 5 505
e 6 245
e 6 723
e 6 608
e 6 823
e 6 504
e 7 103
e 7 53
e 7 22
e 9 442
e 9 516
e 9 955
e 9 301
e 9 504
e 9 945
e 10 30
e 10 202
e 10 616
e 10 967
e 10 507
e 11 201
e 11 370
e 11 96
e 11 133
e 11 609
e 14 277
e 14 227
e 14 684
e 14 338
e 14 847
e 16 521
e 16 494
e 16 619
e 16 108
e 17 365
e 17 40
e 17 368
e 17 419
e 17 922
e 18 641
e 18 351
e 18 254
e 18 306
e 18 212
e 19 80
e 19 518
e 19 513
e 21 35
e 21 792
e 21 427
e 21 812
e 21 478
e 21 288
e 21 746
e 22 645
e 22 419
e 22 306
e 23 462
e 23 536
e 23 29
e 23 745
e 23 993
e 23 870
e 23 381
e 23 805
e 24 559
e 24 809
e 24 103
e 24 469
e 27 239
e 27 95
e 27 460
e 29 662
e 29 539
e 30 737
e 30 589
e 32 261
e 32 65
e 32 54
e 32 554
e 33 550
e 33 958
e 33 844
e 34 522
e 34 642
e 34 573
e 34 210
e 34 45
e 34 361
e 34 488
e 34 526
e 34 71
e 35 788
e 35 760
e 35 579
e 35 282
e 35 395
e 35 428
e 35 448
e 38 849
e 38 763
e 38 193
e 38 524
e 38 850
e 38 578
e 40 584
e 40 483
e 40 815
e 41 365
e 41 809
e 41 506
e 41 886
e 41 567
e 41 350
e 42 438
e 42 912
e 42 484
e 42 577
e 43 748
e 43 865
e 43 922
e 43 806
e 43 601
e 43 211
e 43 70
e 43 575
e 44 806
e 44 213
e 44 815
e 44 402
e 45 690
e 45 714
e 45 982
e 45 288
e 45 532
e 45 471
e 46 116
e 46 727
e 46 456
e 47 363
e 47 407
e 47 997
e 47 700
e 47 63
e 48 418
e 48 128
e 48 930
e 51 65
e 51 948
e 51 888
e 53 426
e 53 252
e 53 669
e 53 377
e 53 926
e 54 195
e 54 961
e 54 784
e 56 327
e 56 538
e 56 830
e 56 891
e 57 485
e 57 797
e 57 781
e 60 67
e 60 412
e 60 635
e 60 465
e 60 406
e 60 345
e 60 747
e 61 405
e 61 537
e 61 386
e 61 892
e 62 267
e 62 547
e 62 808
e 62 195
e 62 840
e 62 934
e 62 184
e 63 530
e 63 551
e 64 893
e 64 193
e 64 270
e 64 565
e 64 174
e 64 472
e 65 675
e 65 674
e 65 438
e 65 736
e 65 477
e 65 311
e 67 530
e 67 179
e 67 255
e 68 813
e 68 206
e 68 211
e 69 684
e 69 448
e 69 918
e 69 763
e 69 727
e 70 821
e 70 689
e 70 751
e 70 180
e 71 636
e 71 336
e 71 999
e 71 239
e 72 771
e 72 461
e 72 418
e 73 950
e 73 808
e 73 629
e 73 582
e 74 931
e 74 270
e 74 121
e 74 305
e 74 205
e 74 517
e 74 1000
e 76 752
e 76 758
e 76 302
e 76 256
e 77 433
e 77 984
e 77 505
e 77 418
e 77 512
e 78 154
e 78 721
e 78 598
e 78 133
e 79 902
e 79 501
e 79 635
e 79 880
e 79 227
e 80 818
e 80 547
e 80 877
e 82 95
e 82 712
e 82 575
e 82 225
e 82 435
e 83 300
e 83 532
e 83 877
e 83 95
e 83 971
e 84 631
e 84 823
e 84 291
e 84 421
e 84 604
e 84 507
e 84 545
e 84 640
e 85 399
e 85 628
e 85 756
e 85 625
e 85 296
e 86 470
e 86 334
e 86 190
e 87 183
e 87 421
e 87 678
e 89 234
e 89 198
e 89 703
e 89 216
e 89 461
e 90 608
e 90 380
e 90 840
e 90 687
e 91 628
e 91 541
e 91 553
e 92 628
e 92 608
e 92 936
e 93 289
e 93 566
e 93 572
e 94 644
e 94 813
e 94 392
e 95 370
e 95 496
e 95 824
e 96 138
e 96 779
e 96 483
e 96 924
e 96 147
e 96 868
e 96 363
e 96 735
e 97 537
e 97 950
e 97 913
e 97 762
e 98 100
e 98 612
e 98 801
e 99 371
e 99 205
e 99 879
e 99 999
e 100 271
e 100 296
e 100 767
e 100 714
e 100 170
e 101 339
e 101 270
e 101 227
e 103 405
e 103 694
e 103 668
e 103 730
e 103 217
e 103 427
e 105 834
e 105 799
e 105 140
e 106 263
e 106 265
e 106 132
e 106 421
e 107 797
e 107 965
e 107 332
e 107 472
e 107 488
e 108 131
e 108 519
e 108 705
e 110 763
e 110 482
e 110 326
e 110 446
e 112 640
e 112 149
e 112 813
e 112 317
e 113 786
e 113 986
e 113 221
e 116 198
e 116 242
e 117 266
e 117 637
e 117 957
e 117 168
e 118 383
e 118 176
e 118 829
e 118 624
e 119 685
e 119 225
e 119 622
e 119 318
e 120 187
e 120 151
e 120 475
e 121 986
e 121 207
e 121 262
e 123 857
e 123 320
e 123 133
e 124 834
e 124 345
e 124 604
e 124 556
e 125 709
e 125 665
e 125 243
e 126 357
e 126 597
e 126 854
e 126 484
e 128 254
e 128 543
e 128 379
e 128 307
e 128 908
e 128 799
e 128 513
e 128 996
e 129 774
e 129 351
e 129 132
e 129 236
e 129 700
e 130 370
e 130 889
e 130 880
e 130 895
e 130 660
e 131 821
e 131 472
e 131 379
e 131 192
e 131 939
e 131 958
e 132 677
e 132 883
e 132 597
e 132 609
e 132 492
e 133 371
e 133 635
e 133 917
e 133 647
e 134 842
e 134 981
e 134 377
e 134 733
e 134 972
e 135 347
e 135 811
e 135 558
e 135 807
e 136 137
e 136 955
e 136 870
e 136 340
e 136 760
e 136 762
e 137 949
e 137 592
e 138 383
e 138 969
e 138 355
e 138 353
e 138 797
e 138 233
e 138 545
e 138 253
e 140 254
e 140 598
e 140 807
e 140 962
e 141 392
e 141 206
e 141 265
e 141 550
e 143 448
e 143 362
e 143 768
e 143 890
e 143 531
e 144 275
e 144 153
e 144 554
e 144 463
e 147 556
e 147 257
e 147 941
e 147 397
e 147 469
e 149 833
e 149 646
e 149 640
e 149 482
e 149 800
e 150 500
e 150 857
e 150 504
e 150 567
e 150 566
e 151 209
e 151 439
e 151 338
e 151 627
e 152 470
e 152 269
e 152 184
e 153 662
e 153 537
e 153 352
e 153 641
e 154 236
e 154 374
e 154 931
e 154 280
e 154 253
e 155 763
e 155 637
e 155 774
e 155 706
e 156 974
e 156 897
e 156 179
e 156 414
e 156 694
e 157 500
e 157 665
e 157 785
e 157 219
e 157 341
e 159 793
e 159 932
e 159 761
e 159 352
e 159 405
e 162 564
e 162 222
e 162 167
e 162 850
e 163 317
e 163 922
e 163 738
e 163 172
e 163 747
e 164 979
e 164 579
e 164 884
e 164 956
e 165 905
e 165 747
e 165 230
e 166 768
e 166 405
e 166 649
e 166 978
e 167 414
e 167 578
e 167 860
e 167 644
e 167 596
e 168 375
e 168 626
e 170 374
e 170 252
e 170 277
e 171 306
e 171 941
e 171 815
e 171 272
e 171 366
e 172 187
e 172 271
e 172 931
e 172 180
e 174 787
e 174 373
e 174 256
e 174 192
e 175 484
e 175 689
e 175 744
e 176 389
e 176 355
e 176 281
e 176 881
e 176 288
e 177 881
e 177 657
e 177 860
e 179 939
e 180 318
e 181 193
e 181 767
e 181 876
e 181 929
e 181 613
e 181 811
e 183 511
e 183 515
e 183 361
e 184 768
e 184 365
e 184 763
e 184 543
e 184 433
e 184 934
e 184 367
e 186 800
e 186 641
e 186 868
e 187 939
e 187 341
e 187 871
e 187 1000
e 189 756
e 189 647
e 189 852
e 190 446
e 190 416
e 190 366
e 190 849
e 192 487
e 192 716
e 192 332
e 193 480
e 193 784
e 193 331
e 193 513
e 195 852
e 195 812
e 195 779
e 195 861
e 196 997
e 196 200
e 196 833
e 196 810
e 196 871
e 197 489
e 197 677
e 197 792
e 198 878
e 198 962
e 198 901
e 198 986
e 198 849
e 198 646
e 200 568
e 200 765
e 200 437
e 200 326
e 200 345
e 201 890
e 201 310
e 201 612
e 201 942
e 202 586
e 202 337
e 204 828
e 204 234
e 204 738
e 204 610
e 205 580
e 205 290
e 205 267
e 205 969
e 206 406
e 206 794
e 206 749
e 206 341
e 207 868
e 207 461
e 207 450
e 207 326
e 207 884
e 208 461
e 208 635
e 208 591
e 208 834
e 209 636
e 209 653
e 209 344
e 210 555
e 210 518
e 210 923
e 210 525
e 211 341
e 212 426
e 212 256
e 213 901
e 213 580
e 214 978
e 214 555
e 214 797
e 214 782
e 214 327
e 214 897
e 216 516
e 216 320
e 217 782
e 217 817
e 217 323
e 217 685
e 217 564
e 218 700
e 218 624
e 218 559
e 218 412
e 218 761
e 219 797
e 219 359
e 219 889
e 220 714
e 220 539
e 220 963
e 220 327
e 220 849
e 220 516
e 221 432
e 221 958
e 222 324
e 222 502
e 224 853
e 224 886
e 224 695
e 224 606
e 224 592
e 225 563
e 225 736
e 226 795
e 226 483
e 226 437
e 226 647
e 227 730
e 227 518
e 227 704
e 227 716
e 227 963
e 227 872
e 228 381
e 228 927
e 228 520
e 229 959
e 229 835
e 229 589
e 229 419
e 229 912
e 229 794
e 230 995
e 230 438
e 230 913
e 230 606
e 230 866
e 230 610
e 230 563
e 233 542
e 233 924
e 233 745
e 234 538
e 234 736
e 234 965
e 234 434
e 234 705
e 234 832
e 234 744
e 235 852
e 235 408
e 235 400
e 235 872
e 235 646
e 236 278
e 236 470
e 236 621
e 236 815
e 237 427
e 237 442
e 237 640
e 237 907
e 238 556
e 238 505
e 238 359
e 238 341
e 238 999
e 238 557
e 239 340
e 240 713
e 240 421
e 240 890
e 240 262
e 240 557
e 242 834
e 242 545
e 242 293
e 243 874
e 243 341
e 244 627
e 244 942
e 244 607
e 245 668
e 245 860
e 246 878
e 246 305
e 246 468
e 246 1000
e 247 472
e 247 249
e 247 567
e 249 981
e 249 839
e 249 979
e 249 883
e 249 377
e 252 307
e 253 771
e 253 991
e 253 494
e 253 542
e 254 784
e 254 785
e 254 296
e 254 608
e 255 660
e 255 538
e 255 812
e 256 610
e 256 418
e 256 378
e 256 362
e 256 886
e 257 448
e 257 790
e 259 756
e 259 746
e 261 908
e 261 572
e 261 288
e 262 736
e 262 332
e 262 341
e 263 861
e 263 367
e 263 773
e 263 706
e 263 800
e 265 674
e 266 388
e 266 818
e 267 352
e 267 646
e 268 984
e 268 423
e 268 343
e 269 669
e 269 521
e 269 478
e 269 691
e 270 871
e 270 471
e 270 964
e 270 431
e 271 604
e 271 535
e 271 545
e 271 690
e 272 926
e 272 432
e 272 448
e 272 723
e 275 578
e 275 981
e 275 302
e 275 713
e 275 496
e 275 945
e 276 416
e 276 968
e 276 301
e 276 499
e 277 287
e 277 584
e 278 365
e 278 916
e 278 823
e 279 433
e 279 679
e 279 676
e 279 297
e 280 998
e 280 359
e 281 880
e 281 843
e 281 567
e 281 733
e 282 441
e 282 815
e 283 447
e 283 288
e 283 709
e 283 321
e 283 795
e 283 366
e 284 950
e 284 716
e 284 890
e 287 960
e 287 457
e 287 843
e 288 652
e 288 776
e 288 787
e 288 352
e 288 844
e 288 961
e 289 385
e 289 333
e 290 559
e 290 996
e 291 449
e 291 414
e 291 657
e 293 720
e 293 797
e 293 554
e 293 337
e 293 614
e 293 584
e 293 639
e 296 939
e 296 858
e 297 386
e 297 857
e 297 968
e 299 586
e 299 945
e 299 704
e 300 582
e 300 952
e 300 627
e 300 760
e 300 928
e 300 435
e 300 929
e 301 563
e 301 442
e 301 981
e 301 449
e 301 763
e 302 332
e 302 832
e 302 860
e 302 609
e 304 520
e 304 858
e 304 342
e 305 772
e 305 917
e 305 518
e 307 558
e 307 835
e 308 805
e 308 928
e 308 685
e 308 712
e 310 590
e 310 862
e 310 930
e 311 413
e 311 380
e 311 996
e 313 582
e 313 626
e 313 645
e 313 668
e 317 571
e 317 381
e 318 901
e 318 744
e 318 897
e 318 399
e 319 806
e 319 357
e 319 592
e 320 676
e 320 716
e 320 530
e 320 914
e 320 343
e 321 462
e 321 920
e 322 785
e 322 595
e 322 732
e 322 504
e 323 410
e 323 398
e 324 595
e 324 964
e 324 576
e 326 574
e 326 503
e 327 858
e 327 791
e 327 853
e 327 684
e 327 925
e 327 969
e 327 423
e 331 824
e 331 641
e 331 366
e 331 748
e 332 541
e 333 823
e 333 668
e 333 692
e 334 368
e 336 543
e 336 948
e 336 832
e 337 660
e 337 512
e 337 539
e 338 964
e 338 630
e 338 777
e 338 800
e 339 842
e 339 894
e 340 744
e 340 395
e 340 597
e 342 683
e 342 817
e 342 501
e 342 729
e 342 480
e 342 720
e 342 558
e 342 410
e 343 642
e 343 756
e 344 818
e 344 914
e 344 605
e 344 963
e 345 883
e 345 806
e 345 567
e 345 990
e 345 512
e 345 604
e 346 487
e 346 951
e 346 403
e 346 736
e 347 471
e 347 641
e 347 433
e 347 524
e 347 370
e 350 566
e 350 437
e 350 832
e 351 758
e 351 765
e 351 944
e 352 451
e 352 504
e 353 926
e 353 401
e 353 765
e 353 533
e 353 599
e 355 380
e 357 577
e 357 635
e 357 461
e 359 936
e 359 608
e 361 789
e 361 397
e 361 733
e 361 625
e 362 636
e 362 623
e 362 630
e 362 598
e 363 551
e 364 789
e 364 811
e 364 470
e 365 536
e 365 950
e 366 998
e 366 728
e 366 642
e 367 733
e 367 681
e 367 628
e 368 880
e 368 927
e 368 596
e 369 502
e 369 442
e 369 406
e 370 876
e 370 625
e 370 976
e 371 925
e 372 764
e 372 548
e 372 616
e 373 886
e 373 447
e 373 437
e 374 982
e 374 919
e 374 822
e 374 790
e 375 903
e 375 579
e 377 660
e 377 785
e 377 423
e 378 983
e 378 409
e 379 599
e 379 718
e 379 511
e 380 573
e 383 639
e 384 451
e 384 462
e 384 857
e 384 952
e 385 556
e 385 960
e 385 662
e 385 674
e 386 604
e 386 631
e 388 951
e 389 933
e 389 883
e 390 813
e 390 908
e 390 515
e 392 993
e 392 536
e 392 500
e 394 732
e 394 654
e 394 919
e 394 681
e 394 902
e 395 669
e 397 649
e 397 419
e 397 960
e 398 596
e 398 477
e 398 636
e 398 586
e 399 671
e 400 621
e 400 681
e 400 554
e 400 901
e 401 805
e 401 428
e 402 409
e 402 917
e 402 499
e 402 513
e 403 972
e 403 666
e 405 564
e 406 935
e 406 718
e 407 447
e 407 615
e 407 548
e 407 962
e 407 998
e 407 499
e 408 606
e 408 676
e 408 439
e 408 703
e 408 496
e 409 734
e 409 576
e 409 793
e 410 505
e 410 669
e 410 919
e 412 564
e 412 520
e 413 881
e 413 746
e 413 607
e 413 543
e 413 733
e 414 678
e 415 923
e 415 912
e 415 825
e 415 621
e 416 998
e 416 828
e 418 986
e 418 519
e 418 712
e 419 502
e 419 607
e 420 603
e 420 422
e 420 935
e 421 524
e 421 839
e 422 830
e 422 480
e 423 967
e 426 969
e 426 564
e 428 952
e 431 985
e 431 442
e 431 608
e 431 767
e 431 687
e 432 923
e 432 558
e 432 592
e 433 866
e 434 749
e 434 641
e 434 779
e 434 890
e 434 958
e 435 767
e 435 690
e 435 847
e 435 653
e 435 469
e 435 636
e 437 601
e 438 912
e 438 787
e 439 763
e 439 874
e 439 553
e 441 807
e 441 891
e 441 922
e 442 926
e 443 845
e 443 830
e 443 842
e 446 603
e 447 457
e 447 852
e 448 671
e 449 974
e 449 968
e 450 853
e 450 463
e 450 771
e 451 932
e 456 508
e 456 813
e 457 941
e 460 806
e 460 646
e 461 969
e 462 829
e 463 969
e 463 822
e 463 881
e 463 758
e 465 810
e 465 540
e 468 635
e 468 918
e 468 858
e 468 503
e 469 495
e 470 650
e 470 625
e 470 556
e 470 568
e 470 803
e 471 515
e 471 779
e 472 515
e 472 489
e 472 623
e 472 508
e 472 579
e 473 883
e 473 854
e 473 652
e 473 554
e 475 912
e 475 733
e 477 557
e 477 777
e 477 721
e 478 664
e 478 666
e 480 985
e 482 771
e 483 563
e 483 582
e 483 967
e 483 981
e 484 488
e 484 631
e 485 627
e 485 853
e 485 756
e 485 640
e 486 588
e 486 691
e 486 779
e 487 892
e 487 614
e 487 804
e 487 558
e 488 888
e 488 828
e 488 772
e 489 793
e 489 874
e 492 680
e 492 909
e 494 549
e 495 674
e 495 541
e 495 907
e 495 877
e 496 859
e 497 749
e 497 540
e 497 914
e 499 901
e 499 892
e 500 829
e 500 528
e 500 649
e 500 761
e 500 641
e 500 874
e 501 582
e 501 865
e 502 784
e 503 653
e 503 673
e 503 646
e 504 872
e 504 687
e 504 626
e 505 574
e 505 524
e 506 535
e 506 720
e 506 681
e 507 641
e 508 883
e 508 985
e 511 845
e 511 688
e 511 820
e 511 678
e 512 952
e 512 572
e 513 813
e 516 774
e 517 729
e 517 762
e 518 788
e 518 907
e 519 995
e 521 557
e 521 632
e 521 803
e 521 603
e 521 626
e 522 571
e 522 880
e 524 571
e 525 615
e 525 957
e 525 653
e 525 591
e 526 923
e 526 647
e 526 597
e 528 972
e 528 681
e 530 624
e 530 683
e 530 684
e 531 936
e 531 691
e 532 872
e 532 679
e 532 883
e 533 652
e 533 575
e 533 998
e 534 969
e 534 916
e 534 767
e 535 982
e 535 971
e 536 582
e 537 571
e 537 791
e 537 854
e 538 948
e 538 556
e 539 729
e 540 920
e 540 713
e 540 844
e 540 614
e 541 582
e 541 868
e 542 883
e 542 599
e 542 997
e 543 677
e 543 892
e 545 894
e 545 745
e 545 962
e 547 673
e 547 997
e 547 733
e 548 737
e 549 997
e 549 942
e 549 730
e 550 786
e 550 654
e 550 662
e 551 555
e 551 623
e 553 557
e 553 591
e 553 876
e 553 919
e 553 852
e 555 792
e 555 834
e 555 955
e 556 850
e 556 932
e 557 909
e 558 762
e 558 840
e 559 928
e 559 563
e 559 568
e 559 754
e 564 608
e 564 934
e 565 897
e 565 785
e 566 955
e 568 981
e 568 846
e 568 922
e 571 691
e 571 983
e 572 862
e 572 720
e 573 891
e 573 575
e 574 893
e 576 767
e 576 738
e 576 675
e 577 611
e 577 612
e 577 700
e 579 825
e 579 929
e 579 990
e 579 624
e 580 833
e 580 716
e 582 749
e 582 954
e 582 758
e 582 604
e 586 966
e 586 861
e 588 853
e 588 733
e 588 828
e 589 709
e 589 951
e 590 845
e 590 615
e 591 627
e 591 981
e 591 959
e 591 597
e 592 788
e 592 628
e 593 927
e 593 830
e 593 805
e 595 763
e 595 706
e 596 737
e 596 751
e 597 934
e 598 736
e 599 690
e 599 668
e 599 971
e 599 749
e 601 769
e 603 684
e 603 931
e 605 835
e 605 685
e 605 697
e 605 749
e 606 805
e 606 709
e 606 821
e 606 806
e 606 751
e 607 756
e 608 878
e 608 954
e 609 780
e 610 859
e 611 878
e 611 625
e 612 642
e 613 985
e 613 829
e 613 895
e 614 733
e 615 621
e 615 903
e 615 945
e 615 996
e 615 745
e 616 631
e 616 740
e 619 818
e 619 893
e 621 811
e 622 968
e 622 917
e 623 749
e 624 669
e 625 636
e 626 982
e 626 664
e 626 630
e 626 790
e 627 784
e 627 777
e 627 763
e 628 844
e 629 671
e 629 995
e 630 828
e 630 981
e 630 895
e 631 695
e 631 632
e 631 735
e 631 782
e 631 849
e 632 962
e 632 712
e 632 991
e 635 752
e 635 976
e 635 734
e 636 926
e 636 795
e 636 721
e 637 767
e 637 976
e 639 951
e 640 687
e 644 860
e 644 673
e 644 752
e 645 740
e 645 894
e 645 916
e 646 908
e 646 675
e 646 779
e 647 912
e 649 696
e 649 854
e 650 865
e 650 844
e 650 889
e 652 733
e 652 892
e 652 782
e 652 902
e 653 723
e 653 688
e 654 865
e 657 930
e 657 975
e 657 821
e 662 991
e 662 929
e 664 824
e 664 957
e 664 799
e 664 949
e 665 714
e 665 954
e 665 721
e 666 789
e 666 923
e 668 926
e 669 718
e 669 769
e 671 845
e 673 978
e 673 675
e 673 925
e 674 696
e 675 784
e 675 813
e 676 961
e 676 763
e 677 920
e 677 966
e 677 865
e 678 852
e 678 789
e 678 883
e 679 920
e 679 712
e 680 954
e 680 744
e 680 752
e 681 866
e 683 758
e 684 995
e 685 825
e 688 890
e 688 705
e 689 948
e 689 857
e 689 865
e 690 751
e 691 983
e 692 767
e 692 842
e 692 841
e 694 794
e 694 950
e 694 721
e 695 879
e 696 895
e 696 971
e 697 966
e 697 979
e 699 841
e 699 905
e 699 834
e 700 967
e 703 956
e 704 818
e 704 931
e 704 781
e 705 826
e 705 877
e 706 859
e 709 918
e 709 948
e 712 894
e 712 944
e 712 740
e 713 829
e 714 865
e 714 821
e 714 846
e 718 944
e 720 824
e 720 902
e 721 740
e 727 954
e 727 772
e 727 884
e 728 828
e 728 764
e 730 820
e 732 967
e 732 811
e 733 966
e 734 843
e 735 746
e 736 745
e 737 771
e 738 928
e 738 919
e 740 843
e 740 917
e 740 914
e 744 970
e 744 981
e 747 776
e 748 903
e 749 859
e 754 889
e 754 817
e 756 808
e 756 933
e 758 942
e 760 809
e 760 861
e 762 884
e 763 839
e 764 832
e 767 965
e 768 792
e 769 945
e 769 961
e 769 933
e 771 964
e 771 846
e 773 909
e 773 907
e 774 975
e 776 962
e 776 902
e 777 913
e 780 858
e 781 799
e 782 948
e 784 799
e 785 830
e 785 881
e 785 956
e 786 916
e 787 872
e 788 918
e 788 902
e 788 901
e 788 808
e 789 808
e 790 823
e 791 939
e 792 963
e 792 889
e 793 924
e 794 983
e 795 914
e 800 826
e 800 930
e 801 984
e 801 920
e 803 977
e 804 879
e 804 812
e 804 931
e 806 892
e 807 847
e 808 982
e 808 935
e 808 868
e 810 990
e 810 841
e 811 967
e 812 841
e 812 854
e 812 881
e 817 822
e 817 854
e 817 998
e 820 918
e 822 933
e 826 905
e 829 862
e 829 981
e 832 977
e 833 972
e 834 870
e 835 993
e 841 852
e 841 924
e 842 970
e 843 933
e 845 949
e 845 970
e 849 874
e 850 967
e 852 978
e 853 975
e 857 962
e 859 876
e 859 897
e 860 959
e 861 889
e 861 912
e 866 891
e 878 909
e 880 884
e 883 971
e 888 913
e 893 954
e 893 975
e 895 984
e 907 976
e 907 974
e 913 971
e 913 984
e 916 951
e 918 977
e 919 949
e 920 936
e 924 949
e 931 962
e 932 942
e 932 974
e 935 944
e 944 945
e 959 1000
e 961 970
e 964 996
e 965 985
e 974 986
e 986 993
